WARNING: for repeatability, setting FPU to use double precision
============================[ Problem Statistics ]=============================
|                                                                             |
|  Number of variables:          2076                                         |
|  Number of clauses:             171                                         |
|  Parse time:                   0.00 s                                       |
|                                                                             |
============================[ Search Statistics ]==============================
| Conflicts |          ORIGINAL         |          LEARNT          | Progress |
|           |    Vars  Clauses Literals |    Limit  Clauses Lit/Cl |          |
===============================================================================
===============================================================================
restarts              : 1
conflicts             : 0              (0 /sec)
decisions             : 1998           (0.00 % random) (943788 /sec)
propagations          : 2076           (980633 /sec)
conflict literals     : 0              (-nan % deleted)
Memory used           : 20.00 MB
CPU time              : 0.002117 s

SATISFIABLE
